
Gurobi 9.5.0 (win64) logging started Tue Dec  7 12:04:06 2021

Set parameter LogFile to value "../results/logs/log_2021_12_07_12_03.csv_10_60.log"
Set parameter Method to value 3
Gurobi Optimizer version 9.5.0 build v9.5.0rc5 (win64)
Thread count: 6 physical cores, 12 logical processors, using up to 12 threads
Optimize a model with 157 rows, 9882 columns and 7489 nonzeros
Model fingerprint: 0x5a4c536d
Variable types: 4941 continuous, 4941 integer (4941 binary)
Coefficient statistics:
  Matrix range     [1e+00, 1e+01]
  Objective range  [1e+00, 1e+00]
  Bounds range     [1e+00, 1e+00]
  RHS range        [1e+00, 6e+01]
Found heuristic solution: objective -0.0000000
Presolve removed 116 rows and 9815 columns
Presolve time: 0.01s
Presolved: 41 rows, 67 columns, 215 nonzeros
Extracted 18 lazy constraints
Variable types: 31 continuous, 36 integer (35 binary)

Root relaxation: objective 4.200000e+01, 11 iterations, 0.00 seconds (0.00 work units)

    Nodes    |    Current Node    |     Objective Bounds      |     Work
 Expl Unexpl |  Obj  Depth IntInf | Incumbent    BestBd   Gap | It/Node Time

     0     0   23.34093    0   13   -0.00000   23.34093      -     -    0s
     0     0   20.99678    0   11   -0.00000   20.99678      -     -    0s
     0     0   20.79681    0   10   -0.00000   20.79681      -     -    0s
     0     0   20.77778    0    4   -0.00000   20.77778      -     -    0s
     0     0   20.77778    0    2   -0.00000   20.77778      -     -    0s
H    0     0                       8.0000000   20.77778   160%     -    0s
H    0     0                      19.0000000   20.77778  9.36%     -    0s
     0     0   20.77778    0    6   19.00000   20.77778  9.36%     -    0s
     0     0   20.77778    0    6   19.00000   20.77778  9.36%     -    0s
     0     0   20.77778    0   10   19.00000   20.77778  9.36%     -    0s
     0     0   20.77778    0    4   19.00000   20.77778  9.36%     -    0s
     0     0   20.77778    0    5   19.00000   20.77778  9.36%     -    0s
     0     0   20.77778    0    4   19.00000   20.77778  9.36%     -    0s
     0     0   20.74847    0    5   19.00000   20.74847  9.20%     -    0s
H    0     0                      20.0000000   20.74847  3.74%     -    0s

Cutting planes:
  Gomory: 7
  Implied bound: 2
  MIR: 7
  Inf proof: 1
  RLT: 1

Explored 1 nodes (167 simplex iterations) in 0.04 seconds (0.01 work units)
Thread count was 12 (of 12 available processors)

Solution count 5: 20 19 15 ... -0

Optimal solution found (tolerance 1.00e-04)
Best objective 2.000000000000e+01, best bound 2.000000000000e+01, gap 0.0000%
